
--- Job HR_ref.gms Start 04/13/18 11:25:07 25.0.1 r65189 WEX-WEI x86 64bit/MS Windows
GAMS 25.0.1   Copyright (C) 1987-2018 GAMS Development. All rights reserved
Licensee: Eval License Carnegie Mellon University        G180112/0001AS-GEN
          Dept. of Chemical Engineering                              DC9476
          License for teaching and research at degree granting institutions
          License Admin: Ignacio E. Grossmann                              
--- Starting continued compilation
--- Workfile was generated under GAMS version WEX250-250
--- HR_ref.gms(33) 3 Mb
--- .max_time_ref.gms(7) 3 Mb
--- HR_ref.gms(55) 3 Mb
--- Starting execution: elapsed 0:00:00.005
--- HR_ref.gms(162) 3 Mb
--- Generating RMIP model prob
--- HR_ref.gms(167) 3 Mb
---   415 rows  211 columns  930 non-zeroes
---   40 discrete-columns
--- Executing CPLEX: elapsed 0:00:00.024

IBM ILOG CPLEX   25.0.1 r65189 Released Jan 17, 2018 WEI x86 64bit/MS Windows 
--- GAMS/Cplex licensed for continuous and discrete problems.
Cplex 12.8.0.0

Reading parameter(s) from "C:\Users\debernal\Dropbox\Ubuntu\GDP_NN\GDP_Refomulation_NN\data\Logic_based_B_B_strip_52\Euler\4\cplex.opt"
>>  randomseed 1
Finished reading from "C:\Users\debernal\Dropbox\Ubuntu\GDP_NN\GDP_Refomulation_NN\data\Logic_based_B_B_strip_52\Euler\4\cplex.opt"
Reading data...
Starting Cplex...
Space for names approximately 0.01 Mb
Use option 'names no' to turn use of names off
CPXPARAM_Advance                                 0
CPXPARAM_Simplex_Limits_Iterations               2000000000
CPXPARAM_TimeLimit                               36000
CPXPARAM_Threads                                 1
CPXPARAM_Parallel                                1
CPXPARAM_Tune_TimeLimit                          7200
CPXPARAM_RandomSeed                              1
Tried aggregator 1 time.
LP Presolve eliminated 80 rows and 0 columns.
Aggregator did 40 substitutions.
Reduced LP has 295 rows, 171 columns, and 890 nonzeros.
Presolve time = 0.08 sec. (0.25 ticks)
Initializing dual steep norms . . .

Iteration log . . .
Iteration:     1   Scaled dual infeas =             0.000000
Iteration:     2   Dual objective     =             5.000000
Perturbation started.
Iteration:    53   Dual objective     =             5.000000
Removing perturbation.
LP status(1): optimal
Cplex Time: 0.09sec (det. 1.30 ticks)

Optimal solution found.
Objective :           7.000000

--- Restarting execution
--- HR_ref.gms(167) 2 Mb
--- Reading solution for model prob
--- Executing after solve: elapsed 0:00:00.198
--- HR_ref.gms(169) 3 Mb
--- Generating MIP model prob
--- HR_ref.gms(171) 3 Mb
---   415 rows  211 columns  930 non-zeroes
---   40 discrete-columns
--- Executing CPLEX: elapsed 0:00:00.211

IBM ILOG CPLEX   25.0.1 r65189 Released Jan 17, 2018 WEI x86 64bit/MS Windows 
--- GAMS/Cplex licensed for continuous and discrete problems.
Cplex 12.8.0.0

Reading parameter(s) from "C:\Users\debernal\Dropbox\Ubuntu\GDP_NN\GDP_Refomulation_NN\data\Logic_based_B_B_strip_52\Euler\4\cplex.opt"
>>  randomseed 1
Finished reading from "C:\Users\debernal\Dropbox\Ubuntu\GDP_NN\GDP_Refomulation_NN\data\Logic_based_B_B_strip_52\Euler\4\cplex.opt"
Reading data...
Starting Cplex...
Space for names approximately 0.01 Mb
Use option 'names no' to turn use of names off
CPXPARAM_Advance                                 2
CPXPARAM_Simplex_Limits_Iterations               2000000000
CPXPARAM_TimeLimit                               36000
CPXPARAM_WorkDir                                 "C:\Users\debernal\Dropbox\Ubuntu\GDP_NN\GDP_Refomulation_NN\data\Logic_based_B_B_strip_52\Euler\4\225a\"
CPXPARAM_Threads                                 1
CPXPARAM_Parallel                                1
CPXPARAM_Tune_TimeLimit                          7200
CPXPARAM_RandomSeed                              1
CPXPARAM_MIP_Tolerances_AbsMIPGap                0
CPXPARAM_MIP_Tolerances_MIPGap                   0.001
CPXPARAM_MIP_Display                             4
Tried aggregator 2 times.
MIP Presolve eliminated 100 rows and 0 columns.
MIP Presolve modified 40 coefficients.
Aggregator did 40 substitutions.
Reduced MIP has 275 rows, 171 columns, and 850 nonzeros.
Reduced MIP has 40 binaries, 0 generals, 0 SOSs, and 0 indicators.
Presolve time = 0.00 sec. (0.83 ticks)
Found incumbent of value 26.000000 after 0.00 sec. (1.08 ticks)
Probing time = 0.00 sec. (0.16 ticks)
Tried aggregator 1 time.
Reduced MIP has 275 rows, 171 columns, and 850 nonzeros.
Reduced MIP has 40 binaries, 0 generals, 0 SOSs, and 0 indicators.
Presolve time = 0.00 sec. (0.50 ticks)
Probing time = 0.00 sec. (0.16 ticks)
Clique table members: 10.
MIP emphasis: balance optimality and feasibility.
MIP search method: dynamic search.
Parallel mode: none, using 1 thread.
Tried aggregator 1 time.
No LP presolve or aggregator reductions.
Presolve time = 0.00 sec. (0.11 ticks)
Initializing dual steep norms . . .

Iteration log . . .
Iteration:     1   Dual objective     =             7.000000
Perturbation started.
Iteration:    51   Dual objective     =             7.000000
Removing perturbation.
Root relaxation solution time = 0.00 sec. (0.56 ticks)

        Nodes                                         Cuts/
   Node  Left     Objective  IInf  Best Integer    Best Bound    ItCnt     Gap

*     0+    0                           26.0000        7.0000            73.08%
Found incumbent of value 26.000000 after 0.02 sec. (2.73 ticks)
      0     0        7.0000    16       26.0000        7.0000       65   73.08%
*     0+    0                           10.0000        7.0000            30.00%
Found incumbent of value 10.000000 after 0.02 sec. (3.23 ticks)
      0     0        7.0000     2       10.0000   Impl Bds: 1       73   30.00%
*     0+    0                            9.0000        7.0000            22.22%
Found incumbent of value 9.000000 after 0.03 sec. (6.24 ticks)
*     0     0      integral     0        7.0000       Cuts: 8       77    0.00%
Found incumbent of value 7.000000 after 0.03 sec. (6.89 ticks)
      0     0        cutoff              7.0000        7.0000       77    0.00%
Elapsed time = 0.03 sec. (6.89 ticks, tree = 0.01 MB, solutions = 4)

Implied bound cuts applied:  2
Flow cuts applied:  2
Mixed integer rounding cuts applied:  2
Gomory fractional cuts applied:  1

Root node processing (before b&c):
  Real time             =    0.03 sec. (6.90 ticks)
Sequential b&c:
  Real time             =    0.00 sec. (0.00 ticks)
                          ------------
Total (root+branch&cut) =    0.03 sec. (6.90 ticks)
MIP status(101): integer optimal solution
Cplex Time: 0.05sec (det. 6.90 ticks)
Fixing integer variables, and solving final LP...
CPXPARAM_Advance                                 2
CPXPARAM_Simplex_Limits_Iterations               2000000000
CPXPARAM_TimeLimit                               36000
CPXPARAM_WorkDir                                 "C:\Users\debernal\Dropbox\Ubuntu\GDP_NN\GDP_Refomulation_NN\data\Logic_based_B_B_strip_52\Euler\4\225a\"
CPXPARAM_Threads                                 1
CPXPARAM_Parallel                                1
CPXPARAM_Tune_TimeLimit                          7200
CPXPARAM_RandomSeed                              1
CPXPARAM_MIP_Tolerances_AbsMIPGap                0
CPXPARAM_MIP_Tolerances_MIPGap                   0.001
CPXPARAM_MIP_Display                             4
Tried aggregator 1 time.
LP Presolve eliminated 395 rows and 191 columns.
Aggregator did 20 substitutions.
All rows and columns eliminated.
Presolve time = 0.00 sec. (0.15 ticks)
Fixed MIP status(1): optimal
Cplex Time: 0.00sec (det. 0.29 ticks)

Proven optimal solution.

MIP Solution:            7.000000    (77 iterations, 0 nodes)
Final Solve:             7.000000    (0 iterations)

Best possible:           7.000000
Absolute gap:            0.000000
Relative gap:            0.000000

--- Restarting execution
--- HR_ref.gms(171) 2 Mb
--- Reading solution for model prob
--- Executing after solve: elapsed 0:00:00.354
--- HR_ref.gms(182) 3 Mb
--- GDX File C:\Users\debernal\Dropbox\Ubuntu\GDP_NN\GDP_Refomulation_NN\data\Logic_based_B_B_strip_52\Euler\4\res_prob.gdx
*** Status: Normal completion
--- Job HR_ref.gms Stop 04/13/18 11:25:07 elapsed 0:00:00.362
